Grasp exp. instance_n_25_m_5_id_2.lp tipoLifted 0 szPool 5 nIteration 100 alpha 0.4 
Academic license - for non-commercial use only
Read LP format model from file ../input/instancesGenerated/instance_n_25_m_5_id_2.lp
Reading time = 0.00 seconds
: 5 rows, 25 columns, 125 nonzeros
Optimize a model with 5 rows, 25 columns and 125 nonzeros
Variable types: 0 continuous, 25 integer (25 binary)
Coefficient statistics:
  Matrix range     [1e+00, 1e+01]
  Objective range  [1e+00, 1e+01]
  Bounds range     [1e+00, 1e+00]
  RHS range        [7e+01, 8e+01]
Found heuristic solution: objective 63.0000000

Explored 0 nodes (0 simplex iterations) in 0.00 seconds
Thread count was 1 (of 8 available processors)

Solution count 1: 63 
No other solutions better than 0

Solution limit reached
Best objective 6.300000000000e+01, best bound -, gap -
C_1:	 5.00 x_1  = 0.783784 + 10.00 x_2  = 1.000000 + 2.00 x_3  = 0.000000 + 1.00 x_4  = 1.000000 + 6.00 x_5  = 1.000000 + 10.00 x_6  = 0.054054 + 6.00 x_7  = 0.000000 + 6.00 x_8  = 0.256757 + 1.00 x_9  = 0.000000 + 1.00 x_10  = 1.000000 + 5.00 x_11  = 1.000000 + 7.00 x_12  = 0.000000 + 7.00 x_13  = 0.000000 + 9.00 x_14  = 1.000000 + 10.00 x_15  = 1.000000 + 5.00 x_16  = 1.000000 + 5.00 x_17  = 1.000000 + 1.00 x_18  = 0.000000 + 8.00 x_19  = 0.000000 + 6.00 x_20  = 0.000000 + 2.00 x_21  = 0.000000 + 7.00 x_22  = 0.000000 + 7.00 x_23  = 0.000000 + 2.00 x_24  = 1.000000 + 9.00 x_25  = 1.000000 <= 69.00
C_2:	 8.00 x_1  = 0.783784 + 6.00 x_2  = 1.000000 + 6.00 x_3  = 0.000000 + 1.00 x_4  = 1.000000 + 1.00 x_5  = 1.000000 + 4.00 x_6  = 0.054054 + 7.00 x_7  = 0.000000 + 2.00 x_8  = 0.256757 + 7.00 x_9  = 0.000000 + 8.00 x_10  = 1.000000 + 9.00 x_11  = 1.000000 + 6.00 x_12  = 0.000000 + 5.00 x_13  = 0.000000 + 5.00 x_14  = 1.000000 + 9.00 x_15  = 1.000000 + 8.00 x_16  = 1.000000 + 9.00 x_17  = 1.000000 + 5.00 x_18  = 0.000000 + 4.00 x_19  = 0.000000 + 10.00 x_20  = 0.000000 + 5.00 x_21  = 0.000000 + 8.00 x_22  = 0.000000 + 6.00 x_23  = 0.000000 + 7.00 x_24  = 1.000000 + 5.00 x_25  = 1.000000 <= 75.00
C_3:	 1.00 x_1  = 0.783784 + 10.00 x_2  = 1.000000 + 3.00 x_3  = 0.000000 + 8.00 x_4  = 1.000000 + 4.00 x_5  = 1.000000 + 1.00 x_6  = 0.054054 + 7.00 x_7  = 0.000000 + 9.00 x_8  = 0.256757 + 9.00 x_9  = 0.000000 + 7.00 x_10  = 1.000000 + 1.00 x_11  = 1.000000 + 2.00 x_12  = 0.000000 + 5.00 x_13  = 0.000000 + 2.00 x_14  = 1.000000 + 10.00 x_15  = 1.000000 + 4.00 x_16  = 1.000000 + 1.00 x_17  = 1.000000 + 8.00 x_18  = 0.000000 + 9.00 x_19  = 0.000000 + 7.00 x_20  = 0.000000 + 6.00 x_21  = 0.000000 + 6.00 x_22  = 0.000000 + 7.00 x_23  = 0.000000 + 10.00 x_24  = 1.000000 + 1.00 x_25  = 1.000000 <= 69.00
C_4:	 6.00 x_1  = 0.783784 + 6.00 x_2  = 1.000000 + 8.00 x_3  = 0.000000 + 2.00 x_4  = 1.000000 + 5.00 x_5  = 1.000000 + 5.00 x_6  = 0.054054 + 4.00 x_7  = 0.000000 + 4.00 x_8  = 0.256757 + 7.00 x_9  = 0.000000 + 1.00 x_10  = 1.000000 + 7.00 x_11  = 1.000000 + 10.00 x_12  = 0.000000 + 9.00 x_13  = 0.000000 + 7.00 x_14  = 1.000000 + 8.00 x_15  = 1.000000 + 7.00 x_16  = 1.000000 + 7.00 x_17  = 1.000000 + 1.00 x_18  = 0.000000 + 2.00 x_19  = 0.000000 + 1.00 x_20  = 0.000000 + 10.00 x_21  = 0.000000 + 5.00 x_22  = 0.000000 + 3.00 x_23  = 0.000000 + 7.00 x_24  = 1.000000 + 5.00 x_25  = 1.000000 <= 68.00
C_5:	 9.00 x_1  = 0.783784 + 4.00 x_2  = 1.000000 + 10.00 x_3  = 0.000000 + 7.00 x_4  = 1.000000 + 6.00 x_5  = 1.000000 + 10.00 x_6  = 0.054054 + 3.00 x_7  = 0.000000 + 1.00 x_8  = 0.256757 + 10.00 x_9  = 0.000000 + 4.00 x_10  = 1.000000 + 7.00 x_11  = 1.000000 + 4.00 x_12  = 0.000000 + 7.00 x_13  = 0.000000 + 3.00 x_14  = 1.000000 + 2.00 x_15  = 1.000000 + 10.00 x_16  = 1.000000 + 1.00 x_17  = 1.000000 + 3.00 x_18  = 0.000000 + 10.00 x_19  = 0.000000 + 10.00 x_20  = 0.000000 + 10.00 x_21  = 0.000000 + 7.00 x_22  = 0.000000 + 6.00 x_23  = 0.000000 + 2.00 x_24  = 1.000000 + 8.00 x_25  = 1.000000 <= 77.00
Solution initial: 94.743243 
Number Constraints Used in Cover:5
GRASP Method!
Number cuts repeat: 0
value: 94.743243
Number Constraints Used in Cover:8
GRASP Method!
Number cuts repeat: 0
value: 94.743243
Number Constraints Used in Cover:13
GRASP Method!
Number cuts repeat: 0
value: 94.743243
Number Constraints Used in Cover:16
GRASP Method!
Number cuts repeat: 0
value: 94.743243
Number Constraints Used in Cover:21
GRASP Method!
Number cuts repeat: 0
value: 94.743243
Number Constraints Used in Cover:26
GRASP Method!
Number cuts repeat: 0
value: 94.743243
Number Constraints Used in Cover:31
GRASP Method!
Number cuts repeat: 0
value: 94.743243
Number Constraints Used in Cover:34
GRASP Method!
Number cuts repeat: 0
value: 94.743243
Number Constraints Used in Cover:38
GRASP Method!
Number cuts repeat: 0
value: 94.743243
Number Constraints Used in Cover:42
GRASP Method!
Number cuts repeat: 0
value: 94.743243
Number Constraints Used in Cover:47
GRASP Method!
Number cuts repeat: 0
value: 94.743243
Number Constraints Used in Cover:52
GRASP Method!
Number cuts repeat: 0
value: 94.743243
Number Constraints Used in Cover:56
GRASP Method!
Number cuts repeat: 0
value: 94.743243
Number Constraints Used in Cover:60
GRASP Method!
Number cuts repeat: 0
value: 94.743243
Number Constraints Used in Cover:64
GRASP Method!
Number cuts repeat: 0
value: 94.743243
Number Constraints Used in Cover:68
GRASP Method!
Number cuts repeat: 0
value: 94.743243
Number Constraints Used in Cover:72
GRASP Method!
Number cuts repeat: 0
value: 94.743243
Number Constraints Used in Cover:77
GRASP Method!
Number cuts repeat: 0
value: 94.743243
Number Constraints Used in Cover:81
GRASP Method!
Number cuts repeat: 0
value: 94.743243
Number Constraints Used in Cover:81
GRASP Method!
Number cuts repeat: 0
value: 94.743243
Number Constraints Used in Cover:85
GRASP Method!
Number cuts repeat: 0
value: 94.743243
Number Constraints Used in Cover:88
GRASP Method!
Number cuts repeat: 0
value: 94.743243
Number Constraints Used in Cover:92
GRASP Method!
Number cuts repeat: 0
value: 94.743243
Number Constraints Used in Cover:97
GRASP Method!
Number cuts repeat: 0
value: 94.743243
Number Constraints Used in Cover:98
GRASP Method!
Number cuts repeat: 0
value: 94.743243
Number Constraints Used in Cover:102
GRASP Method!
Number cuts repeat: 0
value: 94.743243
Number Constraints Used in Cover:106
GRASP Method!
Number cuts repeat: 0
value: 94.743243
Number Constraints Used in Cover:109
GRASP Method!
Number cuts repeat: 0
value: 94.743243
Number Constraints Used in Cover:109
GRASP Method!
Number cuts repeat: 0
value: 94.743243
Number Constraints Used in Cover:114
GRASP Method!
Number cuts repeat: 0
value: 94.743243
Number Constraints Used in Cover:123
GRASP Method!
Number cuts repeat: 0
value: 94.743243
Number Constraints Used in Cover:130
GRASP Method!
Number cuts repeat: 0
value: 94.743243
Number Constraints Used in Cover:136
GRASP Method!
Number cuts repeat: 0
value: 94.743243
Number Constraints Used in Cover:138
GRASP Method!
Number cuts repeat: 0
value: 94.743243
Number Constraints Used in Cover:142
GRASP Method!
Number cuts repeat: 0
value: 94.743243
Number Constraints Used in Cover:148
GRASP Method!
Number cuts repeat: 0
value: 94.743243
Number Constraints Used in Cover:152
GRASP Method!
Number cuts repeat: 0
value: 94.743243
Number Constraints Used in Cover:154
GRASP Method!
Number cuts repeat: 0
value: 94.743243
Number Constraints Used in Cover:159
GRASP Method!
Number cuts repeat: 0
value: 94.743243
Number Constraints Used in Cover:164
GRASP Method!
Number cuts repeat: 0
value: 94.743243
Number Constraints Used in Cover:171
GRASP Method!
Number cuts repeat: 0
value: 94.743243
Number Constraints Used in Cover:178
GRASP Method!
Number cuts repeat: 0
value: 94.743243
Number Constraints Used in Cover:184
GRASP Method!
Number cuts repeat: 0
value: 94.743243
Number Constraints Used in Cover:191
GRASP Method!
Number cuts repeat: 0
value: 94.743243
Number Constraints Used in Cover:196
GRASP Method!
Number cuts repeat: 0
value: 94.743243
Number Constraints Used in Cover:202
GRASP Method!
Number cuts repeat: 0
value: 94.743243
Number Constraints Used in Cover:207
GRASP Method!
Number cuts repeat: 0
value: 94.743243
Number Constraints Used in Cover:213
GRASP Method!
Number cuts repeat: 0
value: 94.743243
Number Constraints Used in Cover:219
GRASP Method!
Number cuts repeat: 0
value: 94.743243
Number Constraints Used in Cover:225
GRASP Method!
Number cuts repeat: 0
value: 94.743243
Number Constraints Used in Cover:230
GRASP Method!
Number cuts repeat: 0
value: 94.743243
Number Constraints Used in Cover:235
GRASP Method!
Number cuts repeat: 0
value: 94.743243
Number Constraints Used in Cover:238
GRASP Method!
Number cuts repeat: 0
value: 94.743243
Number Constraints Used in Cover:241
GRASP Method!
Number cuts repeat: 0
value: 94.743243
Number Constraints Used in Cover:244
GRASP Method!
Number cuts repeat: 0
value: 94.743243
Number Constraints Used in Cover:248
GRASP Method!
Number cuts repeat: 0
value: 94.743243
Number Constraints Used in Cover:253
GRASP Method!
Number cuts repeat: 0
value: 94.743243
Number Constraints Used in Cover:261
GRASP Method!
Number cuts repeat: 0
value: 94.743243
Number Constraints Used in Cover:263
GRASP Method!
Number cuts repeat: 0
value: 94.743243
Number Constraints Used in Cover:266
GRASP Method!
Number cuts repeat: 0
value: 94.743243
Number Constraints Used in Cover:272
GRASP Method!
Number cuts repeat: 0
value: 94.743243
Number Constraints Used in Cover:278
GRASP Method!
Number cuts repeat: 0
value: 94.743243
Number Constraints Used in Cover:282
GRASP Method!
Number cuts repeat: 0
value: 94.743243
Number Constraints Used in Cover:287
GRASP Method!
Number cuts repeat: 0
value: 94.743243
Number Constraints Used in Cover:290
GRASP Method!
Number cuts repeat: 0
value: 94.743243
Number Constraints Used in Cover:295
GRASP Method!
Number cuts repeat: 0
value: 94.743243
Number Constraints Used in Cover:303
GRASP Method!
Number cuts repeat: 0
value: 94.743243
Number Constraints Used in Cover:306
GRASP Method!
Number cuts repeat: 0
value: 94.743243
Number Constraints Used in Cover:312
GRASP Method!
Number cuts repeat: 0
value: 94.743243
Number Constraints Used in Cover:315
GRASP Method!
Number cuts repeat: 0
value: 94.743243
Number Constraints Used in Cover:319
GRASP Method!
Number cuts repeat: 0
value: 94.743243
Number Constraints Used in Cover:326
GRASP Method!
Number cuts repeat: 0
value: 94.743243
Number Constraints Used in Cover:331
GRASP Method!
Number cuts repeat: 0
value: 94.743243
Number Constraints Used in Cover:337
GRASP Method!
Number cuts repeat: 0
value: 94.743243
Number Constraints Used in Cover:341
GRASP Method!
Number cuts repeat: 0
value: 94.743243
Number Constraints Used in Cover:344
GRASP Method!
Number cuts repeat: 0
value: 94.743243
Number Constraints Used in Cover:352
GRASP Method!
Number cuts repeat: 0
value: 94.743243
Number Constraints Used in Cover:360
GRASP Method!
Number cuts repeat: 0
value: 94.743243
Number Constraints Used in Cover:364
GRASP Method!
Number cuts repeat: 0
value: 94.743243
Number Constraints Used in Cover:370
GRASP Method!
Number cuts repeat: 0
value: 94.743243
Number Constraints Used in Cover:375
GRASP Method!
Number cuts repeat: 0
value: 94.743243
Number Constraints Used in Cover:378
GRASP Method!
Number cuts repeat: 0
value: 94.743243
Number Constraints Used in Cover:382
GRASP Method!
Number cuts repeat: 0
value: 94.743243
Number Constraints Used in Cover:384
GRASP Method!
Number cuts repeat: 0
value: 94.743243
Number Constraints Used in Cover:388
GRASP Method!
Number cuts repeat: 0
value: 94.743243
Number Constraints Used in Cover:391
GRASP Method!
Number cuts repeat: 0
value: 94.743243
Number Constraints Used in Cover:395
GRASP Method!
Number cuts repeat: 0
value: 94.743243
Number Constraints Used in Cover:401
GRASP Method!
Number cuts repeat: 0
value: 94.743243
Number Constraints Used in Cover:405
GRASP Method!
Number cuts repeat: 0
value: 94.743243
Number Constraints Used in Cover:409
GRASP Method!
Number cuts repeat: 0
value: 94.743243
Number Constraints Used in Cover:418
GRASP Method!
Number cuts repeat: 0
value: 94.743243
Number Constraints Used in Cover:423
GRASP Method!
Number cuts repeat: 0
value: 94.743243
Number Constraints Used in Cover:432
GRASP Method!
Number cuts repeat: 0
value: 94.743243
Number Constraints Used in Cover:434
GRASP Method!
Number cuts repeat: 0
value: 94.743243
Number Constraints Used in Cover:441
GRASP Method!
Number cuts repeat: 0
value: 94.743243
Number Constraints Used in Cover:444
GRASP Method!
Number cuts repeat: 0
value: 94.743243
Number Constraints Used in Cover:447
GRASP Method!
Number cuts repeat: 0
value: 94.743243
Number Constraints Used in Cover:452
GRASP Method!
Number cuts repeat: 0
value: 94.743243
Number Constraints Used in Cover:454
GRASP Method!
Number cuts repeat: 0
value: 94.743243
Number Constraints Used in Cover:458
GRASP Method!
Number cuts repeat: 0
value: 94.743243
Number Constraints Used in Cover:460
GRASP Method!
Number cuts repeat: 0
value: 94.743243
Number Constraints Used in Cover:465
GRASP Method!
Number cuts repeat: 0
value: 94.743243
Number Constraints Used in Cover:470
GRASP Method!
Number cuts repeat: 0
value: 94.743243
Number Constraints Used in Cover:476
GRASP Method!
Number cuts repeat: 0
value: 94.743243
Number Constraints Used in Cover:484
GRASP Method!
Number cuts repeat: 0
value: 94.743243
Number Constraints Used in Cover:487
GRASP Method!
Number cuts repeat: 0
value: 94.743243
Number Constraints Used in Cover:491
GRASP Method!
Number cuts repeat: 0
value: 94.743243
Number Constraints Used in Cover:496
GRASP Method!
Number cuts repeat: 0
value: 94.743243
Number Constraints Used in Cover:499
GRASP Method!
Number cuts repeat: 0
value: 94.743243
Number Constraints Used in Cover:502
GRASP Method!
Number cuts repeat: 0
value: 94.743243
Number Constraints Used in Cover:503
GRASP Method!
Number cuts repeat: 0
value: 94.743243
Number Constraints Used in Cover:507
GRASP Method!
Number cuts repeat: 0
value: 94.743243
Number Constraints Used in Cover:511
GRASP Method!
Number cuts repeat: 0
value: 94.743243
Number Constraints Used in Cover:516
GRASP Method!
Number cuts repeat: 0
value: 94.743243
Number Constraints Used in Cover:523
GRASP Method!
Number cuts repeat: 0
value: 94.743243
Number Constraints Used in Cover:528
GRASP Method!
Number cuts repeat: 0
value: 94.743243
Number Constraints Used in Cover:538
GRASP Method!
Number cuts repeat: 0
value: 94.743243
Number Constraints Used in Cover:544
GRASP Method!
Number cuts repeat: 0
value: 94.743243
Number Constraints Used in Cover:547
GRASP Method!
Number cuts repeat: 0
value: 94.743243
Number Constraints Used in Cover:553
GRASP Method!
Number cuts repeat: 0
value: 94.743243
Number Constraints Used in Cover:555
GRASP Method!
Number cuts repeat: 0
value: 94.743243
Number Constraints Used in Cover:562
GRASP Method!
Number cuts repeat: 0
value: 94.743243
Number Constraints Used in Cover:566
GRASP Method!
Number cuts repeat: 0
value: 94.743243
Number Constraints Used in Cover:568
GRASP Method!
Number cuts repeat: 0
value: 94.743243
Number Constraints Used in Cover:570
GRASP Method!
Number cuts repeat: 0
value: 94.743243
Number Cuts Final: 568
